language ESSENCE' 1.0
letting nrows be 4
letting ncols be 4

letting nrobots be 4
letting robot_pos be [[1, 1],
                      [1, 4],
                      [4, 1],
                      [4, 4]]

letting ntasks be 4
letting task_obj  be [1, 2, 3, 4]
letting task_dest be [[2, 4],
                      [2, 1],
                      [3, 4],
                      [3, 1]]

letting time_limit be 6

letting map be [[ 0, 0, 0, 0],
                [ 0, 1, 2, 0],
                [ 0, 3, 4, 0],
                [ 0, 0, 0, 0]]
